problems/csplib-prob030/BalancedAcademicCurriculumProblem-models/compact/O2/minion/model-bacp-22-solution000001.eprime-solution
language ESSENCE' 1.0

letting curr_Function1D be
        [10, 10, 10, 1, 9, 9, 9, 9, 9, 9, 9, 8, 8, 8, 7, 7, 1, 7, 4, 6, 1, 6, 3, 2, 1, 2, 5, 5, 1, 1, 4, 4, 3, 3, 2, 3,
         3, 3, 2, 3, 2, 2, 3, 1, 1, 1, 2, 2, 1, 2;
             int(1..50)]
