problems/csplib-prob030/BalancedAcademicCurriculumProblem-models/noch/O0/minion/model-bacp-22-solution000001.solution
language Essence 1.3

letting curr be
        function(1 --> 10, 2 --> 10, 3 --> 10, 4 --> 1, 5 --> 9, 6 --> 9, 7 --> 9, 8 --> 9, 9 --> 9, 10 --> 9, 11 --> 9,
                 12 --> 8, 13 --> 8, 14 --> 8, 15 --> 7, 16 --> 7, 17 --> 1, 18 --> 7, 19 --> 4, 20 --> 6, 21 --> 1,
                 22 --> 6, 23 --> 3, 24 --> 2, 25 --> 1, 26 --> 2, 27 --> 5, 28 --> 5, 29 --> 1, 30 --> 1, 31 --> 4,
                 32 --> 4, 33 --> 3, 34 --> 3, 35 --> 2, 36 --> 3, 37 --> 3, 38 --> 3, 39 --> 2, 40 --> 3, 41 --> 2,
                 42 --> 2, 43 --> 3, 44 --> 1, 45 --> 1, 46 --> 1, 47 --> 2, 48 --> 2, 49 --> 1, 50 --> 2)
